DIMACS2
40 86 314 91 114 16 257 95 207 230 287 161 289 96 93 233 153 239 138 38 49 232 217 280 212 305 66 9 227 84 52 256 132 112 6 123 31 29 275 271 83
p edge 320 1868
e 0 185 1.0
e 1 33 1.0
e 1 151 1.0
e 2 91 34.0
e 3 313 1.0
e 3 0 1.0
e 4 93 11.0
e 5 307 1.0
e 6 202 38.0
e 6 286 36.0
e 6 249 40.0
e 6 81 48.0
e 6 209 36.0
e 6 204 13.0
e 6 165 18.0
e 6 161 43.0
e 6 287 34.0
e 6 111 11.0
e 6 20 16.0
e 6 205 29.0
e 6 121 30.0
e 6 218 13.0
e 6 293 16.0
e 6 108 24.0
e 6 158 26.0
e 6 273 40.0
e 6 177 7.0
e 6 128 23.0
e 6 150 30.0
e 6 154 40.0
e 6 49 9.0
e 6 33 23.0
e 6 39 47.0
e 6 294 17.0
e 6 115 20.0
e 6 244 18.0
e 6 10 10.0
e 6 184 14.0
e 6 25 26.0
e 6 72 34.0
e 6 312 1.0
e 6 125 27.0
e 6 315 45.0
e 6 212 3.0
e 6 94 38.0
e 6 193 31.0
e 6 85 44.0
e 6 221 39.0
e 6 13 32.0
e 7 169 1.0
e 7 83 45.0
e 7 140 2.0
e 8 221 1.0
e 9 301 36.0
e 9 23 46.0
e 9 83 43.0
e 9 314 39.0
e 9 46 33.0
e 9 255 6.0
e 9 229 12.0
e 9 92 19.0
e 9 182 38.0
e 9 4 9.0
e 9 259 23.0
e 9 84 45.0
e 9 221 33.0
e 9 25 17.0
e 9 16 18.0
e 9 205 5.0
e 9 318 26.0
e 9 185 35.0
e 9 294 35.0
e 9 69 24.0
e 9 186 27.0
e 9 176 33.0
e 9 111 16.0
e 9 306 3.0
e 9 164 25.0
e 9 120 21.0
e 9 129 11.0
e 9 183 45.0
e 9 26 9.0
e 9 85 39.0
e 9 198 9.0
e 9 200 34.0
e 9 97 48.0
e 9 151 22.0
e 9 165 5.0
e 9 67 5.0
e 9 313 42.0
e 9 187 25.0
e 9 152 9.0
e 9 220 8.0
e 10 283 2.0
e 10 160 1.0
e 11 111 1.0
e 12 79 1.0
e 13 299 1.0
e 14 194 1.0
e 14 3 1.0
e 15 169 1.0
e 15 181 1.0
e 16 56 44.0
e 16 222 36.0
e 16 224 17.0
e 16 267 26.0
e 16 292 19.0
e 16 124 49.0
e 16 43 7.0
e 16 220 2.0
e 16 38 40.0
e 16 218 15.0
e 16 62 15.0
e 16 128 8.0
e 16 209 14.0
e 16 275 49.0
e 16 168 11.0
e 16 11 13.0
e 16 176 13.0
e 16 142 31.0
e 16 91 23.0
e 16 86 46.0
e 16 67 25.0
e 16 217 2.0
e 16 305 16.0
e 16 127 23.0
e 16 130 40.0
e 16 76 16.0
e 16 17 20.0
e 16 288 38.0
e 16 143 21.0
e 16 204 38.0
e 16 60 1.0
e 16 23 5.0
e 16 112 23.0
e 16 96 45.0
e 16 223 10.0
e 16 30 41.0
e 16 22 14.0
e 16 121 19.0
e 16 259 17.0
e 16 194 31.0
e 17 246 1.0
e 18 232 31.0
e 18 6 3.0
e 18 98 1.0
e 18 123 22.0
e 18 10 10.0
e 18 187 12.0
e 18 274 6.0
e 18 268 11.0
e 18 70 5.0
e 18 71 8.0
e 18 23 7.0
e 19 4 1.0
e 20 73 1.0
e 21 158 1.0
e 21 255 1.0
e 21 269 1.0
e 22 224 1.0
e 22 232 26.0
e 23 317 11.0
e 23 64 3.0
e 23 301 6.0
e 23 284 3.0
e 23 102 8.0
e 23 183 1.0
e 23 14 7.0
e 24 252 2.0
e 24 172 1.0
e 24 214 5.0
e 24 180 4.0
e 25 180 1.0
e 26 111 1.0
e 27 316 1.0
e 28 300 1.0
e 29 217 20.0
e 29 199 37.0
e 29 211 38.0
e 29 302 13.0
e 29 47 45.0
e 29 56 30.0
e 29 294 14.0
e 29 158 23.0
e 29 12 34.0
e 29 308 37.0
e 29 96 8.0
e 29 171 19.0
e 29 196 25.0
e 29 200 26.0
e 29 292 31.0
e 29 34 24.0
e 29 64 39.0
e 29 105 47.0
e 29 301 31.0
e 29 240 2.0
e 29 165 25.0
e 29 139 21.0
e 29 101 46.0
e 29 20 22.0
e 29 295 41.0
e 29 125 10.0
e 29 57 27.0
e 29 239 25.0
e 29 92 14.0
e 29 86 29.0
e 29 31 41.0
e 29 50 29.0
e 29 3 13.0
e 29 276 30.0
e 29 102 40.0
e 29 136 34.0
e 29 178 30.0
e 29 119 10.0
e 29 269 22.0
e 29 249 22.0
e 30 287 18.0
e 30 41 2.0
e 31 268 9.0
e 31 243 25.0
e 31 35 32.0
e 31 205 27.0
e 31 235 31.0
e 31 121 26.0
e 31 182 22.0
e 31 38 4.0
e 31 34 44.0
e 31 263 10.0
e 31 289 44.0
e 31 25 33.0
e 31 274 28.0
e 31 122 24.0
e 31 64 5.0
e 31 149 11.0
e 31 43 35.0
e 31 301 33.0
e 31 218 13.0
e 31 292 3.0
e 31 179 21.0
e 31 123 12.0
e 31 299 41.0
e 31 295 18.0
e 31 116 30.0
e 31 69 49.0
e 31 56 35.0
e 31 75 39.0
e 31 150 25.0
e 31 26 47.0
e 31 37 3.0
e 31 291 6.0
e 31 158 36.0
e 31 1 28.0
e 31 15 48.0
e 31 155 44.0
e 31 17 11.0
e 31 226 40.0
e 32 131 1.0
e 32 134 1.0
e 33 312 2.0
e 34 91 29.0
e 35 171 1.0
e 36 159 1.0
e 37 244 1.0
e 37 60 1.0
e 38 271 5.0
e 38 301 19.0
e 38 296 24.0
e 38 302 15.0
e 38 178 2.0
e 38 291 38.0
e 38 42 28.0
e 38 19 7.0
e 38 44 22.0
e 38 244 18.0
e 38 36 43.0
e 38 238 46.0
e 38 197 21.0
e 38 305 21.0
e 38 215 44.0
e 38 53 24.0
e 38 67 26.0
e 38 37 12.0
e 38 17 34.0
e 38 247 45.0
e 38 217 36.0
e 38 70 10.0
e 38 183 30.0
e 38 201 23.0
e 38 75 6.0
e 38 132 23.0
e 38 7 17.0
e 38 266 42.0
e 38 299 13.0
e 38 279 34.0
e 38 155 2.0
e 38 95 11.0
e 38 149 46.0
e 38 133 20.0
e 38 286 34.0
e 38 61 42.0
e 38 204 44.0
e 38 187 1.0
e 38 78 49.0
e 39 311 1.0
e 39 94 3.0
e 40 0 1.0
e 41 171 1.0
e 42 252 1.0
e 43 85 1.0
e 44 270 1.0
e 45 14 2.0
e 45 156 1.0
e 46 133 1.0
e 47 2 1.0
e 48 276 1.0
e 49 2 43.0
e 49 124 4.0
e 49 130 39.0
e 49 35 35.0
e 49 54 10.0
e 49 73 31.0
e 49 172 14.0
e 49 45 30.0
e 49 176 43.0
e 49 72 17.0
e 49 78 44.0
e 49 258 15.0
e 49 5 1.0
e 49 200 37.0
e 49 39 16.0
e 49 119 47.0
e 49 257 10.0
e 49 122 17.0
e 49 19 42.0
e 49 113 9.0
e 49 74 17.0
e 49 314 23.0
e 49 79 28.0
e 49 214 29.0
e 49 91 1.0
e 49 215 47.0
e 49 71 46.0
e 49 62 22.0
e 49 259 30.0
e 49 90 45.0
e 49 289 6.0
e 49 42 29.0
e 49 254 7.0
e 49 311 20.0
e 49 160 49.0
e 49 75 30.0
e 49 191 14.0
e 49 221 12.0
e 49 181 42.0
e 49 174 39.0
e 50 76 1.0
e 51 225 1.0
e 51 155 2.0
e 52 199 16.0
e 52 136 13.0
e 52 269 34.0
e 52 39 32.0
e 52 71 15.0
e 52 23 12.0
e 52 193 42.0
e 52 128 17.0
e 52 65 19.0
e 52 179 33.0
e 52 248 3.0
e 52 175 23.0
e 52 227 29.0
e 52 51 29.0
e 52 106 40.0
e 52 249 4.0
e 52 75 44.0
e 52 272 28.0
e 52 11 41.0
e 52 66 15.0
e 52 197 22.0
e 52 223 28.0
e 52 164 40.0
e 52 221 27.0
e 52 183 6.0
e 52 140 15.0
e 52 42 47.0
e 52 157 24.0
e 52 86 3.0
e 52 138 2.0
e 52 124 1.0
e 52 22 43.0
e 52 209 1.0
e 52 49 7.0
e 52 155 35.0
e 52 24 2.0
e 52 213 36.0
e 52 190 43.0
e 52 205 40.0
e 52 145 40.0
e 52 238 20.0
e 53 60 2.0
e 53 206 1.0
e 54 272 1.0
e 55 77 1.0
e 56 4 1.0
e 57 245 1.0
e 58 153 27.0
e 59 136 1.0
e 59 278 6.0
e 60 224 1.0
e 61 286 1.0
e 61 14 1.0
e 62 161 7.0
e 63 234 1.0
e 64 282 1.0
e 65 258 1.0
e 66 211 18.0
e 66 49 30.0
e 66 185 20.0
e 66 88 15.0
e 66 78 7.0
e 66 189 26.0
e 66 175 28.0
e 66 69 19.0
e 66 269 15.0
e 66 260 9.0
e 66 29 20.0
e 66 108 33.0
e 66 13 38.0
e 66 82 47.0
e 66 163 40.0
e 66 204 13.0
e 66 102 28.0
e 66 304 43.0
e 66 127 48.0
e 66 216 47.0
e 66 173 10.0
e 66 131 37.0
e 66 24 38.0
e 66 95 31.0
e 66 149 21.0
e 66 62 37.0
e 66 132 38.0
e 66 177 36.0
e 66 279 5.0
e 66 113 18.0
e 66 272 33.0
e 66 18 8.0
e 66 281 35.0
e 66 152 4.0
e 66 53 38.0
e 66 118 22.0
e 66 19 36.0
e 66 310 41.0
e 66 198 28.0
e 66 215 47.0
e 67 5 1.0
e 68 293 1.0
e 68 153 31.0
e 69 269 1.0
e 70 277 1.0
e 71 158 1.0
e 72 170 1.0
e 73 177 1.0
e 74 107 1.0
e 75 233 6.0
e 76 120 2.0
e 77 216 1.0
e 78 191 1.0
e 79 312 1.0
e 80 142 1.0
e 80 228 1.0
e 80 271 30.0
e 81 91 21.0
e 81 157 1.0
e 81 132 3.0
e 81 193 1.0
e 81 84 49.0
e 82 261 1.0
e 83 299 44.0
e 83 74 35.0
e 83 28 39.0
e 83 96 48.0
e 83 213 19.0
e 83 134 4.0
e 83 103 46.0
e 83 32 34.0
e 83 173 28.0
e 83 106 41.0
e 83 42 13.0
e 83 78 32.0
e 83 162 49.0
e 83 15 25.0
e 83 122 33.0
e 83 231 1.0
e 83 43 5.0
e 83 80 30.0
e 83 233 32.0
e 83 119 26.0
e 83 264 36.0
e 83 206 30.0
e 83 0 22.0
e 83 209 21.0
e 83 164 27.0
e 83 189 41.0
e 83 109 31.0
e 83 156 4.0
e 83 283 48.0
e 83 169 48.0
e 83 23 28.0
e 83 295 11.0
e 83 35 20.0
e 83 288 45.0
e 83 248 43.0
e 83 294 3.0
e 83 30 11.0
e 83 58 45.0
e 83 239 42.0
e 84 192 42.0
e 84 10 24.0
e 84 279 35.0
e 84 188 25.0
e 84 203 7.0
e 84 152 7.0
e 84 68 11.0
e 84 278 41.0
e 84 193 8.0
e 84 275 44.0
e 84 204 45.0
e 84 107 7.0
e 84 144 29.0
e 84 83 8.0
e 84 237 10.0
e 84 26 46.0
e 84 232 5.0
e 84 250 4.0
e 84 195 7.0
e 84 110 49.0
e 84 66 45.0
e 84 64 26.0
e 84 39 28.0
e 84 317 18.0
e 84 137 34.0
e 84 128 45.0
e 84 129 34.0
e 84 40 36.0
e 84 54 4.0
e 84 112 11.0
e 84 311 1.0
e 84 218 22.0
e 84 145 32.0
e 84 160 49.0
e 84 75 13.0
e 84 170 25.0
e 84 130 36.0
e 85 167 3.0
e 86 133 26.0
e 86 12 10.0
e 86 170 25.0
e 86 73 39.0
e 86 132 13.0
e 86 284 21.0
e 86 245 30.0
e 86 42 35.0
e 86 7 7.0
e 86 107 2.0
e 86 312 19.0
e 86 198 32.0
e 86 161 4.0
e 86 78 14.0
e 86 79 39.0
e 86 251 9.0
e 86 206 9.0
e 86 211 22.0
e 86 297 12.0
e 86 223 41.0
e 86 87 39.0
e 86 127 41.0
e 86 202 12.0
e 86 2 44.0
e 86 85 43.0
e 86 119 15.0
e 86 230 34.0
e 86 304 1.0
e 86 234 8.0
e 86 302 20.0
e 86 122 36.0
e 86 179 25.0
e 86 51 14.0
e 86 64 1.0
e 86 205 17.0
e 86 1 38.0
e 86 114 40.0
e 86 13 45.0
e 87 157 1.0
e 88 131 1.0
e 89 245 1.0
e 89 247 1.0
e 89 68 1.0
e 90 128 1.0
e 91 143 42.0
e 91 113 35.0
e 91 261 20.0
e 91 18 40.0
e 91 124 18.0
e 91 107 3.0
e 91 179 34.0
e 91 255 24.0
e 91 48 25.0
e 91 112 4.0
e 91 160 35.0
e 91 38 25.0
e 91 210 29.0
e 91 11 15.0
e 91 216 39.0
e 91 181 10.0
e 91 203 6.0
e 91 158 8.0
e 91 175 24.0
e 91 259 27.0
e 91 26 4.0
e 91 256 8.0
e 91 50 27.0
e 91 78 43.0
e 91 144 41.0
e 91 253 40.0
e 91 31 18.0
e 91 19 27.0
e 91 138 37.0
e 91 12 42.0
e 91 93 21.0
e 91 177 35.0
e 91 127 33.0
e 91 226 5.0
e 91 239 16.0
e 92 187 1.0
e 93 47 30.0
e 93 182 47.0
e 93 225 33.0
e 93 230 46.0
e 93 293 20.0
e 93 39 11.0
e 93 270 17.0
e 93 136 17.0
e 93 303 27.0
e 93 58 7.0
e 93 299 38.0
e 93 209 40.0
e 93 61 32.0
e 93 13 21.0
e 93 165 20.0
e 93 192 30.0
e 93 123 31.0
e 93 104 11.0
e 93 18 19.0
e 93 78 21.0
e 93 269 40.0
e 93 41 17.0
e 93 102 36.0
e 93 27 3.0
e 93 205 37.0
e 93 309 44.0
e 93 317 4.0
e 93 306 23.0
e 93 35 10.0
e 93 312 23.0
e 93 64 36.0
e 93 311 41.0
e 93 253 36.0
e 93 81 43.0
e 93 280 23.0
e 93 10 10.0
e 93 141 28.0
e 94 238 1.0
e 95 58 20.0
e 95 137 30.0
e 95 120 48.0
e 95 65 41.0
e 95 13 35.0
e 95 11 34.0
e 95 234 31.0
e 95 221 14.0
e 95 292 30.0
e 95 145 26.0
e 95 59 5.0
e 95 96 19.0
e 95 289 12.0
e 95 63 12.0
e 95 172 17.0
e 95 213 38.0
e 95 253 48.0
e 95 86 27.0
e 95 198 20.0
e 95 68 15.0
e 95 57 4.0
e 95 200 36.0
e 95 22 33.0
e 95 84 38.0
e 95 155 10.0
e 95 293 21.0
e 95 141 9.0
e 95 112 15.0
e 95 304 41.0
e 95 17 7.0
e 95 144 25.0
e 95 41 13.0
e 95 72 3.0
e 95 53 1.0
e 95 265 35.0
e 95 232 27.0
e 95 278 7.0
e 95 8 12.0
e 96 25 12.0
e 96 117 24.0
e 96 302 41.0
e 96 183 1.0
e 96 84 21.0
e 96 172 17.0
e 96 184 26.0
e 96 204 3.0
e 96 20 44.0
e 96 132 34.0
e 96 175 24.0
e 96 293 4.0
e 96 313 3.0
e 96 176 14.0
e 96 57 48.0
e 96 241 24.0
e 96 88 36.0
e 96 142 8.0
e 96 64 19.0
e 96 151 1.0
e 96 244 39.0
e 96 30 30.0
e 96 72 42.0
e 96 189 19.0
e 96 127 27.0
e 96 58 37.0
e 96 102 24.0
e 96 104 29.0
e 96 114 41.0
e 96 247 48.0
e 96 141 38.0
e 96 314 15.0
e 96 236 13.0
e 96 261 13.0
e 96 134 46.0
e 97 19 2.0
e 98 77 1.0
e 99 122 1.0
e 99 133 1.0
e 100 246 1.0
e 100 162 1.0
e 101 284 1.0
e 102 72 1.0
e 103 119 1.0
e 104 91 4.0
e 105 74 8.0
e 105 24 6.0
e 105 142 5.0
e 105 49 6.0
e 105 281 4.0
e 105 99 5.0
e 105 196 1.0
e 105 183 7.0
e 105 262 7.0
e 106 180 1.0
e 107 129 1.0
e 108 164 1.0
e 109 291 1.0
e 110 184 1.0
e 111 102 1.0
e 112 63 11.0
e 112 298 17.0
e 112 220 48.0
e 112 252 43.0
e 112 149 31.0
e 112 200 12.0
e 112 162 20.0
e 112 114 17.0
e 112 219 35.0
e 112 317 38.0
e 112 33 40.0
e 112 237 42.0
e 112 26 25.0
e 112 54 2.0
e 112 273 19.0
e 112 151 12.0
e 112 303 42.0
e 112 27 47.0
e 112 53 41.0
e 112 28 45.0
e 112 133 10.0
e 112 171 7.0
e 112 239 15.0
e 112 184 47.0
e 112 227 33.0
e 112 150 29.0
e 112 12 4.0
e 112 58 10.0
e 112 243 22.0
e 112 56 38.0
e 112 234 29.0
e 112 277 4.0
e 112 121 8.0
e 112 41 1.0
e 112 78 8.0
e 113 12 2.0
e 114 24 20.0
e 114 97 10.0
e 114 178 13.0
e 114 307 11.0
e 114 170 35.0
e 114 302 23.0
e 114 1 41.0
e 114 144 13.0
e 114 250 5.0
e 114 107 16.0
e 114 15 47.0
e 114 26 1.0
e 114 253 22.0
e 114 32 28.0
e 114 298 38.0
e 114 282 10.0
e 114 311 31.0
e 114 301 28.0
e 114 167 16.0
e 114 20 5.0
e 114 198 22.0
e 114 141 11.0
e 114 142 7.0
e 114 230 42.0
e 114 43 5.0
e 114 281 2.0
e 114 77 20.0
e 114 60 16.0
e 114 11 23.0
e 114 154 13.0
e 114 128 19.0
e 114 18 15.0
e 114 9 38.0
e 114 69 9.0
e 114 299 3.0
e 114 187 4.0
e 114 80 48.0
e 114 65 8.0
e 115 170 1.0
e 116 269 1.0
e 116 98 1.0
e 117 162 1.0
e 118 265 1.0
e 119 8 1.0
e 120 31 1.0
e 120 124 10.0
e 120 283 2.0
e 120 32 5.0
e 120 241 3.0
e 120 261 1.0
e 120 118 4.0
e 120 131 9.0
e 121 175 1.0
e 122 176 1.0
e 123 84 40.0
e 123 255 25.0
e 123 220 19.0
e 123 225 24.0
e 123 293 17.0
e 123 182 23.0
e 123 8 18.0
e 123 9 16.0
e 123 200 40.0
e 123 61 28.0
e 123 1 10.0
e 123 96 4.0
e 123 221 25.0
e 123 259 30.0
e 123 124 43.0
e 123 62 6.0
e 123 262 42.0
e 123 161 2.0
e 123 318 11.0
e 123 125 37.0
e 123 303 13.0
e 123 132 25.0
e 123 272 29.0
e 123 4 6.0
e 123 307 16.0
e 123 235 17.0
e 123 5 45.0
e 123 91 2.0
e 123 13 46.0
e 123 37 20.0
e 123 85 38.0
e 123 144 47.0
e 123 245 14.0
e 123 151 33.0
e 123 215 15.0
e 123 2 2.0
e 123 107 35.0
e 123 246 5.0
e 124 163 1.0
e 125 170 1.0
e 126 312 1.0
e 127 64 2.0
e 128 283 1.0
e 129 61 1.0
e 130 227 36.0
e 131 47 1.0
e 132 127 2.0
e 132 277 26.0
e 132 46 22.0
e 132 97 33.0
e 132 13 8.0
e 132 25 1.0
e 132 75 4.0
e 132 107 28.0
e 132 257 11.0
e 132 89 29.0
e 132 198 13.0
e 132 14 7.0
e 132 199 20.0
e 132 239 46.0
e 132 12 28.0
e 132 113 16.0
e 132 244 13.0
e 132 73 43.0
e 132 74 9.0
e 132 114 41.0
e 132 301 26.0
e 132 245 13.0
e 132 286 20.0
e 132 276 48.0
e 132 128 30.0
e 132 65 21.0
e 132 39 42.0
e 132 256 44.0
e 132 68 44.0
e 132 278 22.0
e 132 15 35.0
e 132 51 35.0
e 132 87 25.0
e 132 103 37.0
e 132 246 13.0
e 133 111 1.0
e 134 188 1.0
e 135 317 1.0
e 135 132 43.0
e 136 188 1.0
e 137 276 1.0
e 138 105 40.0
e 138 181 26.0
e 138 23 24.0
e 138 6 18.0
e 138 17 15.0
e 138 200 49.0
e 138 71 34.0
e 138 246 16.0
e 138 248 44.0
e 138 209 25.0
e 138 202 15.0
e 138 70 12.0
e 138 301 40.0
e 138 100 2.0
e 138 227 25.0
e 138 139 36.0
e 138 207 27.0
e 138 289 19.0
e 138 13 13.0
e 138 19 39.0
e 138 237 13.0
e 138 305 26.0
e 138 298 5.0
e 138 210 7.0
e 138 153 31.0
e 138 314 34.0
e 138 18 20.0
e 138 120 44.0
e 138 180 23.0
e 138 69 26.0
e 138 191 39.0
e 138 306 40.0
e 138 2 49.0
e 138 276 31.0
e 138 137 48.0
e 138 58 7.0
e 138 236 47.0
e 138 93 40.0
e 138 228 22.0
e 139 133 1.0
e 140 216 2.0
e 141 281 1.0
e 142 162 1.0
e 143 28 1.0
e 144 216 3.0
e 145 151 2.0
e 146 145 1.0
e 147 300 1.0
e 147 33 1.0
e 148 9 8.0
e 148 88 2.0
e 148 176 3.0
e 149 220 1.0
e 150 95 2.0
e 150 46 5.0
e 150 310 6.0
e 151 306 1.0
e 152 67 2.0
e 153 278 3.0
e 153 60 37.0
e 153 118 4.0
e 153 4 34.0
e 153 84 14.0
e 153 240 44.0
e 153 255 39.0
e 153 174 21.0
e 153 86 31.0
e 153 95 17.0
e 153 313 2.0
e 153 23 37.0
e 153 234 1.0
e 153 190 21.0
e 153 55 41.0
e 153 101 38.0
e 153 175 16.0
e 153 123 15.0
e 153 236 42.0
e 153 203 42.0
e 153 93 10.0
e 153 5 12.0
e 153 262 4.0
e 153 111 20.0
e 153 30 2.0
e 153 53 12.0
e 153 208 22.0
e 153 263 46.0
e 153 28 22.0
e 153 14 22.0
e 153 188 8.0
e 153 35 4.0
e 153 299 32.0
e 153 220 23.0
e 153 145 21.0
e 153 89 24.0
e 153 260 5.0
e 153 170 34.0
e 154 280 44.0
e 155 112 3.0
e 156 264 1.0
e 157 291 1.0
e 158 177 1.0
e 159 136 1.0
e 160 242 1.0
e 161 51 13.0
e 161 316 42.0
e 161 165 24.0
e 161 153 32.0
e 161 178 26.0
e 161 124 25.0
e 161 226 20.0
e 161 295 7.0
e 161 272 29.0
e 161 29 27.0
e 161 96 10.0
e 161 146 29.0
e 161 167 7.0
e 161 139 31.0
e 161 42 37.0
e 161 9 36.0
e 161 279 10.0
e 161 170 33.0
e 161 310 15.0
e 161 143 3.0
e 161 75 43.0
e 161 302 2.0
e 161 177 7.0
e 161 71 20.0
e 161 275 45.0
e 161 222 29.0
e 161 283 9.0
e 161 203 26.0
e 161 156 41.0
e 161 300 35.0
e 161 182 29.0
e 161 92 33.0
e 161 239 35.0
e 161 137 10.0
e 161 140 17.0
e 162 130 1.0
e 163 126 1.0
e 164 221 1.0
e 165 220 1.0
e 166 119 1.0
e 166 28 1.0
e 167 8 1.0
e 168 295 2.0
e 169 64 1.0
e 170 168 2.0
e 171 254 1.0
e 172 206 1.0
e 173 161 32.0
e 174 212 16.0
e 175 35 1.0
e 176 223 1.0
e 177 45 1.0
e 178 82 1.0
e 179 143 1.0
e 180 231 1.0
e 181 146 1.0
e 182 284 1.0
e 183 236 1.0
e 184 41 1.0
e 185 28 1.0
e 186 226 1.0
e 187 19 1.0
e 188 250 1.0
e 189 0 1.0
e 190 232 8.0
e 190 183 4.0
e 190 127 1.0
e 190 245 2.0
e 191 175 1.0
e 192 289 38.0
e 193 54 1.0
e 194 267 1.0
e 195 93 3.0
e 196 223 1.0
e 197 300 1.0
e 198 64 1.0
e 199 258 1.0
e 200 127 1.0
e 201 87 1.0
e 202 65 3.0
e 203 33 3.0
e 204 155 2.0
e 205 70 1.0
e 206 11 1.0
e 207 239 47.0
e 207 151 29.0
e 207 119 13.0
e 207 248 11.0
e 207 135 23.0
e 207 44 18.0
e 207 78 31.0
e 207 139 43.0
e 207 285 22.0
e 207 249 36.0
e 207 296 23.0
e 207 87 2.0
e 207 120 13.0
e 207 140 26.0
e 207 94 15.0
e 207 212 4.0
e 207 318 8.0
e 207 45 5.0
e 207 177 6.0
e 207 240 18.0
e 207 221 17.0
e 207 107 26.0
e 207 288 48.0
e 207 173 33.0
e 207 68 21.0
e 207 110 7.0
e 207 257 38.0
e 207 180 5.0
e 207 8 45.0
e 207 278 45.0
e 207 80 28.0
e 207 192 1.0
e 207 125 31.0
e 207 222 34.0
e 207 159 27.0
e 207 98 32.0
e 207 250 22.0
e 207 210 3.0
e 207 3 41.0
e 208 20 1.0
e 209 270 1.0
e 210 249 1.0
e 211 157 1.0
e 211 195 2.0
e 211 114 43.0
e 212 119 23.0
e 212 270 30.0
e 212 314 34.0
e 212 191 47.0
e 212 124 30.0
e 212 206 46.0
e 212 128 44.0
e 212 254 32.0
e 212 120 33.0
e 212 96 35.0
e 212 85 33.0
e 212 158 32.0
e 212 84 45.0
e 212 208 40.0
e 212 39 27.0
e 212 61 10.0
e 212 294 41.0
e 212 215 16.0
e 212 48 28.0
e 212 179 2.0
e 212 231 20.0
e 212 287 38.0
e 212 62 24.0
e 212 113 43.0
e 212 269 6.0
e 212 95 24.0
e 212 211 14.0
e 212 17 33.0
e 212 26 29.0
e 212 235 47.0
e 212 102 13.0
e 212 136 29.0
e 212 129 47.0
e 212 117 25.0
e 212 219 44.0
e 212 22 33.0
e 212 273 6.0
e 213 12 2.0
e 214 25 1.0
e 215 195 1.0
e 216 24 1.0
e 217 154 1.0
e 217 0 45.0
e 217 131 17.0
e 217 314 38.0
e 217 189 36.0
e 217 58 6.0
e 217 236 19.0
e 217 33 34.0
e 217 237 4.0
e 217 30 21.0
e 217 232 48.0
e 217 256 35.0
e 217 141 31.0
e 217 222 5.0
e 217 48 11.0
e 217 35 26.0
e 217 37 36.0
e 217 13 33.0
e 217 254 12.0
e 217 114 9.0
e 217 130 41.0
e 217 108 33.0
e 217 61 37.0
e 217 144 17.0
e 217 276 12.0
e 217 54 16.0
e 217 214 29.0
e 217 275 16.0
e 217 200 37.0
e 217 147 7.0
e 217 97 15.0
e 217 111 1.0
e 217 215 23.0
e 217 43 43.0
e 217 207 1.0
e 217 40 35.0
e 217 3 14.0
e 218 46 1.0
e 219 266 2.0
e 220 234 1.0
e 221 165 3.0
e 222 228 1.0
e 223 182 1.0
e 224 110 1.0
e 225 40 1.0
e 226 75 1.0
e 227 173 13.0
e 227 11 45.0
e 227 142 40.0
e 227 245 26.0
e 227 160 46.0
e 227 117 45.0
e 227 82 42.0
e 227 220 28.0
e 227 308 40.0
e 227 244 37.0
e 227 72 6.0
e 227 63 7.0
e 227 263 13.0
e 227 168 43.0
e 227 96 28.0
e 227 65 49.0
e 227 283 1.0
e 227 253 19.0
e 227 281 3.0
e 227 124 27.0
e 227 246 15.0
e 227 307 11.0
e 227 176 32.0
e 227 221 10.0
e 227 222 39.0
e 227 273 29.0
e 227 238 42.0
e 227 93 40.0
e 227 312 22.0
e 227 226 17.0
e 227 126 8.0
e 227 282 34.0
e 227 223 22.0
e 227 255 46.0
e 227 16 49.0
e 227 272 6.0
e 227 268 28.0
e 228 260 1.0
e 229 25 2.0
e 230 276 33.0
e 230 192 7.0
e 230 119 45.0
e 230 300 21.0
e 230 30 15.0
e 230 55 32.0
e 230 171 4.0
e 230 135 7.0
e 230 217 14.0
e 230 216 43.0
e 230 156 33.0
e 230 31 31.0
e 230 15 8.0
e 230 18 7.0
e 230 166 40.0
e 230 129 1.0
e 230 253 7.0
e 230 302 12.0
e 230 289 8.0
e 230 263 41.0
e 230 121 10.0
e 230 264 30.0
e 230 308 10.0
e 230 257 7.0
e 230 48 32.0
e 230 194 25.0
e 230 90 41.0
e 230 288 4.0
e 230 293 27.0
e 230 292 43.0
e 230 245 24.0
e 230 32 16.0
e 230 8 31.0
e 230 0 37.0
e 230 250 22.0
e 230 128 38.0
e 230 277 40.0
e 231 31 39.0
e 232 291 29.0
e 232 110 42.0
e 232 286 24.0
e 232 314 45.0
e 232 122 24.0
e 232 31 37.0
e 232 191 24.0
e 232 300 30.0
e 232 200 37.0
e 232 19 47.0
e 232 155 1.0
e 232 66 19.0
e 232 275 20.0
e 232 137 15.0
e 232 195 25.0
e 232 315 29.0
e 232 218 13.0
e 232 105 49.0
e 232 186 30.0
e 232 296 46.0
e 232 178 11.0
e 232 211 28.0
e 232 272 33.0
e 232 212 23.0
e 232 252 21.0
e 232 307 31.0
e 232 0 46.0
e 232 138 48.0
e 232 47 2.0
e 232 130 3.0
e 232 121 4.0
e 232 94 49.0
e 232 8 48.0
e 232 258 17.0
e 232 69 35.0
e 233 93 1.0
e 233 177 8.0
e 233 146 47.0
e 233 7 6.0
e 233 94 47.0
e 233 285 32.0
e 233 121 35.0
e 233 227 42.0
e 233 295 11.0
e 233 222 49.0
e 233 38 11.0
e 233 99 39.0
e 233 123 16.0
e 233 261 9.0
e 233 234 15.0
e 233 15 27.0
e 233 180 4.0
e 233 235 15.0
e 233 155 7.0
e 233 84 46.0
e 233 226 38.0
e 233 237 7.0
e 233 44 19.0
e 233 62 11.0
e 233 284 7.0
e 233 27 47.0
e 233 316 6.0
e 233 109 44.0
e 233 139 5.0
e 233 160 8.0
e 233 219 2.0
e 233 224 47.0
e 233 73 19.0
e 233 253 15.0
e 233 101 23.0
e 233 122 23.0
e 233 156 6.0
e 233 183 7.0
e 234 240 1.0
e 235 317 1.0
e 236 72 1.0
e 237 242 1.0
e 238 206 2.0
e 239 58 29.0
e 239 298 48.0
e 239 59 5.0
e 239 240 42.0
e 239 287 4.0
e 239 56 48.0
e 239 301 6.0
e 239 154 15.0
e 239 313 16.0
e 239 212 44.0
e 239 4 42.0
e 239 141 47.0
e 239 43 14.0
e 239 46 34.0
e 239 284 31.0
e 239 44 37.0
e 239 190 46.0
e 239 164 37.0
e 239 294 48.0
e 239 158 3.0
e 239 22 12.0
e 239 236 10.0
e 239 283 34.0
e 239 248 28.0
e 239 106 12.0
e 239 290 3.0
e 239 17 8.0
e 239 1 46.0
e 239 133 17.0
e 239 302 48.0
e 239 255 11.0
e 239 269 43.0
e 239 148 2.0
e 239 19 5.0
e 240 233 42.0
e 241 295 1.0
e 242 28 1.0
e 243 67 1.0
e 244 75 1.0
e 245 71 1.0
e 246 215 1.0
e 247 63 1.0
e 248 98 3.0
e 249 187 1.0
e 250 169 1.0
e 251 117 1.0
e 252 26 1.0
e 253 307 1.0
e 254 113 2.0
e 255 128 1.0
e 256 23 29.0
e 256 85 43.0
e 256 57 23.0
e 256 35 38.0
e 256 21 24.0
e 256 134 22.0
e 256 20 7.0
e 256 202 35.0
e 256 317 40.0
e 256 55 33.0
e 256 92 43.0
e 256 151 32.0
e 256 278 15.0
e 256 261 23.0
e 256 102 20.0
e 256 58 11.0
e 256 47 18.0
e 256 245 13.0
e 256 275 13.0
e 256 179 26.0
e 256 110 33.0
e 256 135 2.0
e 256 318 43.0
e 256 149 28.0
e 256 206 22.0
e 256 189 43.0
e 256 263 42.0
e 256 294 23.0
e 256 243 44.0
e 256 300 19.0
e 256 269 42.0
e 256 97 32.0
e 256 239 2.0
e 256 77 3.0
e 256 240 10.0
e 256 101 3.0
e 256 158 7.0
e 256 303 23.0
e 257 299 45.0
e 257 3 14.0
e 257 95 32.0
e 257 309 22.0
e 257 233 46.0
e 257 176 25.0
e 257 18 1.0
e 257 225 7.0
e 257 131 15.0
e 257 114 20.0
e 257 28 4.0
e 257 202 7.0
e 257 243 30.0
e 257 236 36.0
e 257 98 45.0
e 257 138 3.0
e 257 62 7.0
e 257 168 1.0
e 257 90 43.0
e 257 88 27.0
e 257 111 6.0
e 257 254 30.0
e 257 282 40.0
e 257 234 12.0
e 257 235 31.0
e 257 284 5.0
e 257 203 18.0
e 257 219 45.0
e 257 245 39.0
e 257 289 12.0
e 257 33 3.0
e 257 259 21.0
e 257 5 9.0
e 257 165 34.0
e 257 149 35.0
e 257 237 5.0
e 257 197 22.0
e 258 87 1.0
e 259 97 2.0
e 260 164 1.0
e 261 238 2.0
e 262 130 4.0
e 263 273 1.0
e 264 165 1.0
e 265 297 1.0
e 266 130 4.0
e 267 48 1.0
e 268 147 1.0
e 268 208 3.0
e 268 27 1.0
e 269 299 1.0
e 270 0 1.0
e 271 229 46.0
e 271 273 13.0
e 271 179 39.0
e 271 289 21.0
e 271 151 1.0
e 271 309 39.0
e 271 110 41.0
e 271 50 5.0
e 271 112 12.0
e 271 53 1.0
e 271 16 13.0
e 271 290 30.0
e 271 9 34.0
e 271 73 37.0
e 271 143 40.0
e 271 258 45.0
e 271 60 29.0
e 271 198 2.0
e 271 316 17.0
e 271 304 3.0
e 271 3 8.0
e 271 78 17.0
e 271 203 44.0
e 271 104 47.0
e 271 171 24.0
e 271 190 43.0
e 271 79 29.0
e 271 103 48.0
e 271 51 2.0
e 271 156 26.0
e 271 81 15.0
e 271 235 35.0
e 271 82 9.0
e 271 282 18.0
e 271 48 37.0
e 271 83 24.0
e 271 272 40.0
e 271 199 41.0
e 271 265 28.0
e 272 241 1.0
e 273 281 1.0
e 274 131 1.0
e 275 112 49.0
e 275 225 38.0
e 275 222 49.0
e 275 203 43.0
e 275 131 48.0
e 275 262 11.0
e 275 139 38.0
e 275 140 5.0
e 275 103 31.0
e 275 98 41.0
e 275 174 11.0
e 275 70 39.0
e 275 86 29.0
e 275 56 40.0
e 275 28 38.0
e 275 257 45.0
e 275 82 11.0
e 275 81 40.0
e 275 276 43.0
e 275 207 44.0
e 275 141 22.0
e 275 162 1.0
e 275 83 11.0
e 275 39 27.0
e 275 53 12.0
e 275 67 45.0
e 275 11 41.0
e 275 129 34.0
e 275 172 27.0
e 275 104 13.0
e 275 223 29.0
e 275 73 42.0
e 275 265 28.0
e 275 88 6.0
e 275 101 37.0
e 276 316 5.0
e 277 213 1.0
e 278 242 5.0
e 279 36 2.0
e 280 47 33.0
e 280 294 28.0
e 280 94 1.0
e 280 218 10.0
e 280 29 43.0
e 280 298 14.0
e 280 61 43.0
e 280 112 11.0
e 280 87 42.0
e 280 1 36.0
e 280 23 13.0
e 280 44 40.0
e 280 95 21.0
e 280 304 45.0
e 280 193 45.0
e 280 65 28.0
e 280 169 19.0
e 280 291 3.0
e 280 190 38.0
e 280 272 35.0
e 280 279 13.0
e 280 260 48.0
e 280 296 32.0
e 280 261 8.0
e 280 2 14.0
e 280 63 49.0
e 280 153 44.0
e 280 88 23.0
e 280 74 34.0
e 280 251 39.0
e 280 30 39.0
e 280 175 26.0
e 280 42 17.0
e 280 110 21.0
e 280 111 28.0
e 280 113 32.0
e 280 107 6.0
e 280 313 42.0
e 280 174 45.0
e 281 151 1.0
e 282 26 1.0
e 283 217 35.0
e 284 12 1.0
e 285 96 45.0
e 287 285 40.0
e 287 42 2.0
e 287 106 13.0
e 287 152 18.0
e 287 90 21.0
e 287 126 33.0
e 287 27 40.0
e 287 131 14.0
e 287 196 20.0
e 287 288 17.0
e 287 310 14.0
e 287 254 35.0
e 287 57 36.0
e 287 146 25.0
e 287 31 22.0
e 287 265 45.0
e 287 275 31.0
e 287 134 29.0
e 287 266 37.0
e 287 59 24.0
e 287 121 45.0
e 287 149 33.0
e 287 14 36.0
e 287 230 32.0
e 287 312 34.0
e 287 195 25.0
e 287 306 10.0
e 287 206 37.0
e 287 65 40.0
e 287 314 19.0
e 287 172 20.0
e 287 293 41.0
e 287 304 10.0
e 287 268 42.0
e 287 0 11.0
e 287 294 8.0
e 287 4 20.0
e 288 44 1.0
e 289 165 5.0
e 289 287 35.0
e 289 42 27.0
e 289 234 21.0
e 289 9 37.0
e 289 33 44.0
e 289 246 40.0
e 289 247 15.0
e 289 87 5.0
e 289 302 39.0
e 289 14 38.0
e 289 186 46.0
e 289 273 42.0
e 289 222 18.0
e 289 300 5.0
e 289 35 20.0
e 289 99 13.0
e 289 243 12.0
e 289 164 48.0
e 289 21 5.0
e 289 122 32.0
e 289 86 9.0
e 289 248 45.0
e 289 254 42.0
e 289 170 24.0
e 289 259 21.0
e 289 177 47.0
e 289 297 45.0
e 289 171 14.0
e 289 98 21.0
e 289 136 24.0
e 289 145 48.0
e 289 200 41.0
e 290 240 3.0
e 291 229 1.0
e 292 126 1.0
e 293 29 25.0
e 294 230 17.0
e 294 162 4.0
e 294 13 15.0
e 294 41 9.0
e 294 102 7.0
e 294 71 14.0
e 294 182 20.0
e 294 233 27.0
e 294 16 32.0
e 294 62 18.0
e 294 20 6.0
e 294 281 24.0
e 295 314 3.0
e 296 282 1.0
e 297 96 28.0
e 298 55 1.0
e 299 170 1.0
e 300 141 1.0
e 301 272 2.0
e 302 84 34.0
e 303 26 1.0
e 304 212 29.0
e 305 199 48.0
e 305 263 40.0
e 305 159 8.0
e 305 179 45.0
e 305 146 40.0
e 305 118 4.0
e 305 224 1.0
e 305 137 17.0
e 305 312 48.0
e 305 85 1.0
e 305 71 39.0
e 305 200 13.0
e 305 109 44.0
e 305 142 22.0
e 305 289 33.0
e 305 91 19.0
e 305 281 19.0
e 305 226 26.0
e 305 302 14.0
e 305 273 24.0
e 305 293 14.0
e 305 163 4.0
e 305 96 7.0
e 305 23 14.0
e 305 17 9.0
e 305 148 44.0
e 305 36 3.0
e 305 14 5.0
e 305 177 29.0
e 305 156 31.0
e 305 18 21.0
e 305 67 9.0
e 305 43 44.0
e 305 8 34.0
e 305 182 22.0
e 305 254 10.0
e 305 19 43.0
e 305 255 11.0
e 306 87 1.0
e 307 128 1.0
e 308 207 12.0
e 309 195 1.0
e 310 27 2.0
e 311 50 2.0
e 312 85 3.0
e 313 98 1.0
e 314 299 23.0
e 314 145 4.0
e 314 139 18.0
e 314 91 11.0
e 314 92 36.0
e 314 184 45.0
e 314 53 4.0
e 314 222 26.0
e 314 268 49.0
e 314 313 49.0
e 314 114 44.0
e 314 227 6.0
e 314 108 34.0
e 314 61 13.0
e 314 230 20.0
e 314 111 8.0
e 314 115 18.0
e 314 90 39.0
e 314 223 6.0
e 314 289 1.0
e 314 239 17.0
e 314 146 45.0
e 314 176 19.0
e 314 261 36.0
e 314 93 7.0
e 314 76 25.0
e 314 163 48.0
e 314 123 36.0
e 314 1 46.0
e 314 154 21.0
e 314 218 25.0
e 314 288 31.0
e 315 27 1.0
e 316 137 1.0
e 317 0 1.0
e 318 161 27.0
e 319 189 1.0
e 319 141 2.0
